17	4
23	20	23	21	
0	0	0	0	0	3	2	3	4	
5	7	0	6	9	3	5	11	14	
4	2	0	0	0	3	6	8	10	
6	3	0	0	0	3	9	17	17	
4	10	2	0	10	3	6	7	15	
175	0	6	0	8	3	9	17	17	
150	0	0	9	9	3	8	16	17	
250	0	0	2	0	2	17	17	
75	0	10	0	0	3	17	17	17	
150	4	0	9	1	3	12	14	17	
175	5	0	5	0	3	15	17	17	
150	8	5	5	0	3	13	16	17	
7	0	1	0	0	3	17	17	17	
8	0	1	0	0	2	15	17	
4	0	0	6	0	2	17	17	
1	8	0	0	4	2	17	17	
0	0	0	0	0	0	
